\ Model idol-model
\ LP format - for model browsing. Use MPS format to capture full model detail.
\ Signature: 0xc27655aa393e3d3f
Minimize
  736 C0000000 + 387 C0000001 + 38 C0000002 + 996 C0000003 + 167 C0000004
   + 330 C0000005 + 376 C0000006 + 10 C0000007 + 56 C0000008 + 754 C0000009
   + 144 C0000010 + 355 C0000011 + 664 C0000012 + 835 C0000013
   + 216 C0000014 + 737 C0000015 + 410 C0000016 + 407 C0000017
   + 964 C0000018 + 535 C0000019 + 244 C0000020 + 741 C0000021
   + 278 C0000022 + 301 C0000023 + 428 C0000024 + 415 C0000025
   + 210 C0000026 + 392 C0000027 + 866 C0000028 + 817 C0000029
Subject To
 R0000000: 606 C0000000 + 963 C0000001 + 664 C0000002 + 553 C0000003
   + 138 C0000004 + 681 C0000005 + 354 C0000006 + 543 C0000007
   + 764 C0000008 + 101 C0000009 + 430 C0000010 + 811 C0000011
   + 912 C0000012 + 331 C0000013 + 424 C0000014 + 433 C0000015
   + 914 C0000016 + 119 C0000017 + 979 C0000018 + 504 C0000019
   + 369 C0000020 + 634 C0000021 + 839 C0000022 + 844 C0000023
   + 309 C0000024 + 118 C0000025 + 13 C0000026 + 740 C0000027
   + 150 C0000028 + 845 C0000029 <= 8042
 IC0: C0000000 + x0 <= 1
 IC1: C0000001 + x1 <= 1
 IC2: C0000002 + x2 <= 1
 IC3: C0000003 + x3 <= 1
 IC4: C0000004 + x4 <= 1
 IC5: C0000005 + x5 <= 1
 IC6: C0000006 + x6 <= 1
 IC7: C0000007 + x7 <= 1
 IC8: C0000008 + x8 <= 1
 IC9: C0000009 + x9 <= 1
 IC10: C0000010 + x10 <= 1
 IC11: C0000011 + x11 <= 1
 IC12: C0000012 + x12 <= 1
 IC13: C0000013 + x13 <= 1
 IC14: C0000014 + x14 <= 1
 IC15: C0000015 + x15 <= 1
 IC16: C0000016 + x16 <= 1
 IC17: C0000017 + x17 <= 1
 IC18: C0000018 + x18 <= 1
 IC19: C0000019 + x19 <= 1
 IC20: C0000020 + x20 <= 1
 IC21: C0000021 + x21 <= 1
 IC22: C0000022 + x22 <= 1
 IC23: C0000023 + x23 <= 1
 IC24: C0000024 + x24 <= 1
 IC25: C0000025 + x25 <= 1
 IC26: C0000026 + x26 <= 1
 IC27: C0000027 + x27 <= 1
 IC28: C0000028 + x28 <= 1
 IC29: C0000029 + x29 <= 1
 interdictionBudget: 874 x0 + 185 x1 + 104 x2 + 298 x3 + 937 x4 + 344 x5
   + 314 x6 + 721 x7 + 472 x8 + 147 x9 + 798 x10 + 740 x11 + 319 x12
   + 276 x13 + 327 x14 + 580 x15 + 31 x16 + 602 x17 + 553 x18 + 18 x19
   + 553 x20 + 930 x21 + 961 x22 + 602 x23 + 127 x24 + 564 x25 + 15 x26
   + 602 x27 + 401 x28 + 82 x29 <= 6739
 c_122: - 736 C0000000 - 387 C0000001 - 38 C0000002 - 996 C0000003
   - 167 C0000004 - 330 C0000005 - 376 C0000006 - 10 C0000007 - 56 C0000008
   - 754 C0000009 - 144 C0000010 - 355 C0000011 - 664 C0000012
   - 835 C0000013 - 216 C0000014 - 737 C0000015 - 410 C0000016
   - 407 C0000017 - 964 C0000018 - 535 C0000019 - 244 C0000020
   - 741 C0000021 - 278 C0000022 - 301 C0000023 - 428 C0000024
   - 415 C0000025 - 210 C0000026 - 392 C0000027 - 866 C0000028
   - 817 C0000029 <= 0
Bounds
Binaries
 C0000000 C0000001 C0000002 C0000003 C0000004 C0000005 C0000006 C0000007
 C0000008 C0000009 C0000010 C0000011 C0000012 C0000013 C0000014 C0000015
 C0000016 C0000017 C0000018 C0000019 C0000020 C0000021 C0000022 C0000023
 C0000024 C0000025 C0000026 C0000027 C0000028 C0000029 x0 x1 x2 x3 x4 x5 x6
 x7 x8 x9 x10 x11 x12 x13 x14 x15 x16 x17 x18 x19 x20 x21 x22 x23 x24 x25
 x26 x27 x28 x29
End
